Function: get_partitions took 1.3589859008789062e-05 seconds
Function: map_flows_partitions took 2.86102294921875e-06 seconds
Building model with:
2 devices, 1 partitions and 1 flows
Using license file /home/anup/gurobi.lic
Academic license - for non-commercial use only
Function: MIP.add_frac_mem_var took 0.0001888275146484375 seconds
Function: MIP.add_coverage_constraints took 0.00017309188842773438 seconds
Function: MIP.add_accuracy_constraints took 7.653236389160156e-05 seconds
Function: MIP.add_capacity_constraints took 0.000232696533203125 seconds
Changed value of parameter TimeLimit to 120.0
   Prev: inf  Min: 0.0  Max: inf  Default: inf
--------------------------------------------------
Starting model update
Model update took: 6.031990051269531e-05 s
--------------------------------------------------
Starting model optimize
Gurobi Optimizer version 9.0.0 build v9.0.0rc2 (linux64)
Optimize a model with 9 rows, 14 columns and 20 nonzeros
Model fingerprint: 0xe992a471
Model has 4 general constraints
Variable types: 12 continuous, 2 integer (2 binary)
Coefficient statistics:
  Matrix range     [1e+00, 3e+04]
  Objective range  [1e+00, 1e+00]
  Bounds range     [1e+00, 3e+04]
  RHS range        [1e+00, 1e+00]

---------------------------------------------------------------------------
Multi-objectives: starting optimization with 8 objectives ... 
---------------------------------------------------------------------------

Multi-objectives: applying initial presolve ...
---------------------------------------------------------------------------

Presolve removed 9 rows and 14 columns
Presolve time: 0.00s

---------------------------------------------------------------------------
Multi-objectives: solved in 0.00 seconds, solution count 1

Model optimize took: 0.0007123947143554688 seconds
--------------------------------------------------

Solution quality statistics for model UnivmonGreedyRows :
  Maximum violation:
    Bound       : 0.00000000e+00
    Constraint  : 0.00000000e+00
    Integrality : 0.00000000e+00

Sketch (0) (cm: eps0: 1.25e-06, del0: 0.05, min_mem: 8494.6328125)
Par: 1, Rows: 3
(0.000,1)    (1.000,0)    
Total frac: 1.000

Device (0) CPU_1:
Rows total: 3.0
Mem total: 25483.8984375

Device (1) P4_1:
Rows total: 0.0
Mem total: 0.0
--------------------------------------------------
Changed value of parameter NonConvex to 2
   Prev: -1  Min: -1  Max: 2  Default: -1

Throughput: 56.00000000000043 Mpps, ns per packet: 17.85714285714272
Resources: 73.11082744598389
Used Cores: 7.0, Total CPUS: 1, Switch Memory: 0.0

Sketch (0) (cm: eps0: 1.25e-06, del0: 0.05, min_mem: 8494.6328125)
Par: 1, Rows: 3
(0.000,1)    (1.000,0)    
Total frac: 1.000

Device (0) CPU_1:
cores_sketch: 5.000000000000001, cores_dpdk: 1.9999999999999993
Rows total: 3.0
Mem total: 25483.8984375
Throughput: 56.00000000000043

Device (1) P4_1:
Rows total: 0
Mem total: 0.0
Throughput: 148.0
--------------------------------------------------
Function: MIP.solve took 0.01381373405456543 seconds
Function: solve took 0.014055013656616211 seconds
